
Gurobi 12.0.3 (linux64) logging started Fri Jan  2 10:05:04 2026

Set parameter LogFile to value "/home/bazzo/Scrivania/fjsp_rescheduling/simulations/logs/EX28/gurobi_exp28.log"
Set parameter OutputFlag to value 1
Set parameter TimeLimit to value 2160
Set parameter Presolve to value 2
Set parameter MIPFocus to value 3
Set parameter Heuristics to value 0.1
Set parameter ImproveStartGap to value 0.5
Set parameter Presolve to value 2
Gurobi Optimizer version 12.0.3 build v12.0.3rc0 (linux64 - "Ubuntu 22.04.5 LTS")

CPU model: Intel(R) Xeon(R) W-2145 CPU @ 3.70GHz, instruction set [SSE2|AVX|AVX2|AVX512]
Thread count: 8 physical cores, 16 logical processors, using up to 16 threads

Non-default parameters:
TimeLimit  2160
Heuristics  0.1
MIPFocus  3
Presolve  2
ImproveStartGap  0.5

Optimize a model with 764117 rows, 157937 columns and 3786546 nonzeros
Model fingerprint: 0x7a7e9b15
Model has 20 quadratic constraints
Variable types: 20 continuous, 157917 integer (157122 binary)
Coefficient statistics:
  Matrix range     [1e+00, 2e+04]
  QMatrix range    [1e+00, 1e+00]
  QLMatrix range   [1e+00, 1e+00]
  Objective range  [1e+00, 1e+00]
  Bounds range     [1e+00, 1e+00]
  RHS range        [1e+00, 7e+04]
Presolve removed 239865 rows and 48766 columns (presolve time = 5s)...
Presolve removed 240646 rows and 48768 columns (presolve time = 10s)...
Presolve removed 240650 rows and 48768 columns (presolve time = 15s)...
Presolve removed 240681 rows and 48770 columns (presolve time = 20s)...
Presolve removed 246270 rows and 48772 columns (presolve time = 25s)...
Presolve removed 246396 rows and 48772 columns (presolve time = 30s)...
Presolve removed 246545 rows and 48772 columns (presolve time = 35s)...
Presolve removed 246545 rows and 48772 columns (presolve time = 40s)...
Presolve removed 246545 rows and 48772 columns (presolve time = 45s)...
Presolve removed 246557 rows and 48784 columns
Presolve time: 47.70s
Presolved: 517560 rows, 109153 columns, 2600926 nonzeros
Presolved model has 20 quadratic constraint(s)
Variable types: 20 continuous, 109133 integer (108774 binary)

Deterministic concurrent LP optimizer: primal simplex, dual simplex, and barrier
Showing barrier log only...

Root relaxation presolve removed 447294 rows and 99206 columns
Root relaxation presolved: 109133 rows, 626687 columns, 2710047 nonzeros

Root barrier log...

Ordering time: 0.40s

Barrier performed 0 iterations in 52.15 seconds (138.43 work units)
Barrier solve interrupted - model solved by another algorithm

Concurrent spin time: 0.37s (can be avoided by choosing Method=3)

Solved with primal simplex

Root relaxation: objective 0.000000e+00, 181 iterations, 3.36 seconds (3.10 work units)
Total elapsed time = 56.03s (DegenMoves)
Total elapsed time = 60.04s (DegenMoves)
Total elapsed time = 66.97s (DegenMoves)
Total elapsed time = 83.18s (DegenMoves)

    Nodes    |    Current Node    |     Objective Bounds      |     Work
 Expl Unexpl |  Obj  Depth IntInf | Incumbent    BestBd   Gap | It/Node Time

     0     0    0.00000    0   79          -    0.00000      -     -   85s
     0     0    0.00000    0  291          -    0.00000      -     -  114s

Cutting planes:
  Gomory: 21
  Lift-and-project: 14
  Implied bound: 2
  MIR: 206
  Mixing: 6
  Flow cover: 1350
  Zero half: 22
  RLT: 24
  Relax-and-lift: 7

Explored 1 nodes (13154 simplex iterations) in 114.07 seconds (205.69 work units)
Thread count was 16 (of 16 available processors)

Solution count 0

Solve interrupted
Best objective -, best bound 0.000000000000e+00, gap -

User-callback calls 44366, time in user-callback 0.21 sec

Gurobi 12.0.3 (linux64) logging started Fri Jan  2 10:13:21 2026

Set parameter LogFile to value "/home/bazzo/Scrivania/fjsp_rescheduling/simulations/logs/EX28/gurobi_exp28.log"
Set parameter OutputFlag to value 1
Set parameter TimeLimit to value 2160
Set parameter Presolve to value 2
Set parameter MIPFocus to value 3
Set parameter Heuristics to value 0.1
Set parameter ImproveStartGap to value 0.5
Set parameter Presolve to value 2
Gurobi Optimizer version 12.0.3 build v12.0.3rc0 (linux64 - "Ubuntu 22.04.5 LTS")

CPU model: Intel(R) Xeon(R) W-2145 CPU @ 3.70GHz, instruction set [SSE2|AVX|AVX2|AVX512]
Thread count: 8 physical cores, 16 logical processors, using up to 16 threads

Non-default parameters:
TimeLimit  2160
Heuristics  0.1
MIPFocus  3
Presolve  2
ImproveStartGap  0.5

Optimize a model with 764117 rows, 157937 columns and 3786546 nonzeros
Model fingerprint: 0x7a7e9b15
Model has 20 quadratic constraints
Variable types: 20 continuous, 157917 integer (157122 binary)
Coefficient statistics:
  Matrix range     [1e+00, 2e+04]
  QMatrix range    [1e+00, 1e+00]
  QLMatrix range   [1e+00, 1e+00]
  Objective range  [1e+00, 1e+00]
  Bounds range     [1e+00, 1e+00]
  RHS range        [1e+00, 7e+04]
Presolve removed 239865 rows and 48766 columns (presolve time = 5s)...
Presolve removed 240646 rows and 48768 columns (presolve time = 10s)...
Presolve removed 240681 rows and 48770 columns (presolve time = 15s)...
Presolve removed 246213 rows and 48770 columns (presolve time = 20s)...
Presolve removed 246317 rows and 48772 columns (presolve time = 25s)...
Presolve removed 246396 rows and 48772 columns (presolve time = 30s)...
Presolve removed 246545 rows and 48772 columns (presolve time = 35s)...
Presolve removed 246545 rows and 48772 columns (presolve time = 40s)...
Presolve removed 246557 rows and 48784 columns (presolve time = 45s)...
Presolve removed 246557 rows and 48784 columns
Presolve time: 45.27s
Presolved: 517560 rows, 109153 columns, 2600926 nonzeros
Presolved model has 20 quadratic constraint(s)
Variable types: 20 continuous, 109133 integer (108774 binary)

Deterministic concurrent LP optimizer: primal simplex, dual simplex, and barrier
Showing barrier log only...

Root relaxation presolve removed 447294 rows and 99206 columns
Root relaxation presolved: 109133 rows, 626687 columns, 2710047 nonzeros

Root barrier log...

Ordering time: 0.41s

Barrier performed 0 iterations in 49.74 seconds (138.43 work units)
Barrier solve interrupted - model solved by another algorithm

Concurrent spin time: 0.41s (can be avoided by choosing Method=3)

Solved with primal simplex

Root relaxation: objective 0.000000e+00, 181 iterations, 3.35 seconds (3.10 work units)
Total elapsed time = 53.32s (DegenMoves)
Total elapsed time = 57.47s (DegenMoves)
Total elapsed time = 61.06s (DegenMoves)
Total elapsed time = 66.44s (DegenMoves)
Total elapsed time = 80.03s (DegenMoves)

    Nodes    |    Current Node    |     Objective Bounds      |     Work
 Expl Unexpl |  Obj  Depth IntInf | Incumbent    BestBd   Gap | It/Node Time

     0     0    0.00000    0   79          -    0.00000      -     -   82s
     0     0    0.00000    0  117          -    0.00000      -     -  134s
     0     0    0.00000    0  143          -    0.00000      -     -  136s
     0     0    0.00000    0  151          -    0.00000      -     -  169s
     0     0    0.00000    0  157          -    0.00000      -     -  170s
     0     0    0.00000    0  138          -    0.00000      -     -  198s
     0     0    0.00000    0  182          -    0.00000      -     -  199s
     0     0    0.00000    0  148          -    0.00000      -     -  236s
     0     0    0.00000    0  182          -    0.00000      -     -  237s
     0     0    0.00000    0  129          -    0.00000      -     -  287s
     0     0    0.00000    0  161          -    0.00000      -     -  288s
     0     0    0.00000    0  147          -    0.00000      -     -  320s
     0     0    0.00000    0  132          -    0.00000      -     -  336s
     0     0    0.00000    0  160          -    0.00000      -     -  371s
     0     0    0.00000    0  113          -    0.00000      -     -  410s
     0     0    0.00000    0  128          -    0.00000      -     -  450s
     0     0    0.00000    0  128          -    0.00000      -     -  494s
     0     0    0.00000    0  114          -    0.00000      -     -  534s
     0     0    0.00000    0  114          -    0.00000      -     -  578s
     0     0    0.00000    0  132          -    0.00000      -     -  622s
     0     0    0.00000    0  125          -    0.00000      -     -  668s
     0     0    0.00000    0   89          -    0.00000      -     -  715s
     0     0    0.00000    0  112          -    0.00000      -     -  765s
     0     0    0.00000    0  110          -    0.00000      -     -  796s
     0     0    0.00000    0  115          -    0.00000      -     -  829s
     0     0    0.00000    0  113          -    0.00000      -     -  861s
     0     0    0.00000    0  114          -    0.00000      -     -  887s
     0     0    0.00000    0  126          -    0.00000      -     -  925s
     0     0    0.00000    0  117          -    0.00000      -     -  965s
     0     0    0.00000    0  110          -    0.00000      -     - 1005s
     0     0    0.00000    0  125          -    0.00000      -     - 1019s
     0     0    0.00000    0  116          -    0.00000      -     - 1056s
     0     0    0.00000    0  128          -    0.00000      -     - 1084s
     0     0    0.00000    0  127          -    0.00000      -     - 1129s
     0     0    0.00000    0  120          -    0.00000      -     - 1172s
     0     0    0.00000    0  125          -    0.00000      -     - 1201s
     0     0    0.00000    0  116          -    0.00000      -     - 1240s
     0     0    0.00000    0   94          -    0.00000      -     - 1273s
     0     0    0.00000    0   94          -    0.00000      -     - 1285s
     0     2    0.00000    0   94          -    0.00000      -     - 1679s
     1     4    0.00000    1  102          -    0.00000      -   479 1684s
     3     8    0.00000    2  192          -    0.00000      -   326 1690s
     7    16    0.00000    3  282          -    0.00000      -   432 1698s
    15    24    0.00000    4  309          -    0.00000      -   538 1706s
    23    72    0.00000    5  375          -    0.00000      -   635 1728s
    71   352    0.00000    6  368          -    0.00000      -   499 1756s
   351   708    0.00000   37  213          -    0.00000      -   161 1799s
   708   709    0.00000   29   94          -    0.00000      -   132 1883s
   710   710    0.00000   24  160          -    0.00000      -   132 1947s
   711   711    0.00000   44  131          -    0.00000      -   131 2024s
   712   712   20.64706    4  181          -    0.00000      -   131 2049s
   713   712    0.00000   57  141          -    0.00000      -   131 2158s

Cutting planes:
  Learned: 1
  Gomory: 93
  Lift-and-project: 10
  MIR: 79
  StrongCG: 1
  Flow cover: 719
  Zero half: 43
  RLT: 13
  Relax-and-lift: 12

Explored 713 nodes (215314 simplex iterations) in 2160.61 seconds (2750.20 work units)
Thread count was 16 (of 16 available processors)

Solution count 0

Time limit reached
Best objective -, best bound 0.000000000000e+00, gap -

User-callback calls 597547, time in user-callback 3.04 sec
Set parameter TimeLimit to value 1080
Gurobi Optimizer version 12.0.3 build v12.0.3rc0 (linux64 - "Ubuntu 22.04.5 LTS")

CPU model: Intel(R) Xeon(R) W-2145 CPU @ 3.70GHz, instruction set [SSE2|AVX|AVX2|AVX512]
Thread count: 8 physical cores, 16 logical processors, using up to 16 threads

Non-default parameters:
TimeLimit  1080
Heuristics  0.1
MIPFocus  3
Presolve  2
ImproveStartGap  0.5

Optimize a model with 764118 rows, 157937 columns and 3786566 nonzeros
Model fingerprint: 0x8aa17d37
Model has 20 quadratic constraints
Variable types: 20 continuous, 157917 integer (157122 binary)
Coefficient statistics:
  Matrix range     [1e+00, 2e+04]
  QMatrix range    [1e+00, 1e+00]
  QLMatrix range   [1e+00, 1e+00]
  Objective range  [5e-01, 5e-01]
  Bounds range     [1e+00, 1e+00]
  RHS range        [1e+00, 1e+100]
Warning: Model contains large rhs
         Consider reformulating model or setting NumericFocus parameter
         to avoid numerical issues.
Presolve removed 239866 rows and 48766 columns (presolve time = 5s)...
Presolve removed 240647 rows and 48768 columns (presolve time = 10s)...
Presolve removed 240680 rows and 48770 columns (presolve time = 15s)...
Presolve removed 246214 rows and 48770 columns (presolve time = 20s)...
Presolve removed 246271 rows and 48772 columns (presolve time = 25s)...
Presolve removed 246397 rows and 48772 columns (presolve time = 30s)...
Presolve removed 246546 rows and 48772 columns (presolve time = 35s)...
Presolve removed 246546 rows and 48772 columns (presolve time = 40s)...
Presolve removed 246546 rows and 48772 columns (presolve time = 45s)...
Presolve removed 246558 rows and 48784 columns
Presolve time: 46.19s
Presolved: 517560 rows, 109153 columns, 2600926 nonzeros
Presolved model has 20 quadratic constraint(s)
Variable types: 20 continuous, 109133 integer (108774 binary)

Deterministic concurrent LP optimizer: primal simplex, dual simplex, and barrier
Showing barrier log only...

Root relaxation presolve removed 447294 rows and 99206 columns
Root relaxation presolved: 109133 rows, 626687 columns, 2710047 nonzeros

Root barrier log...

Ordering time: 0.34s

Barrier performed 0 iterations in 49.95 seconds (138.55 work units)
Barrier solve interrupted - model solved by another algorithm

Concurrent spin time: 0.07s

Solved with primal simplex

Root relaxation: objective 3.800000e+01, 16 iterations, 2.75 seconds (3.09 work units)
Total elapsed time = 52.65s (DegenMoves)

    Nodes    |    Current Node    |     Objective Bounds      |     Work
 Expl Unexpl |  Obj  Depth IntInf | Incumbent    BestBd   Gap | It/Node Time

     0     0   38.00000    0   64          -   38.00000      -     -   54s
     0     0   38.00000    0   13          -   38.00000      -     -   85s
     0     0   38.00000    0   11          -   38.00000      -     -   88s
     0     0   38.00000    0   14          -   38.00000      -     -  133s
H    0     0                      38.0000000   38.00000  0.00%     -  134s
     0     0   38.00000    0   14   38.00000   38.00000  0.00%     -  134s

Cutting planes:
  Learned: 8
  Flow cover: 174
  Zero half: 1
  RLT: 10

Explored 1 nodes (8515 simplex iterations) in 134.16 seconds (239.33 work units)
Thread count was 16 (of 16 available processors)

Solution count 1: 38 

Optimal solution found (tolerance 1.00e-04)
Best objective 3.800000000000e+01, best bound 3.800000000000e+01, gap 0.0000%

User-callback calls 47647, time in user-callback 0.21 sec
Set parameter TimeLimit to value 360
Gurobi Optimizer version 12.0.3 build v12.0.3rc0 (linux64 - "Ubuntu 22.04.5 LTS")

CPU model: Intel(R) Xeon(R) W-2145 CPU @ 3.70GHz, instruction set [SSE2|AVX|AVX2|AVX512]
Thread count: 8 physical cores, 16 logical processors, using up to 16 threads

Non-default parameters:
TimeLimit  360
Heuristics  0.1
MIPFocus  3
Presolve  2
ImproveStartGap  0.5

Optimize a model with 764120 rows, 157937 columns and 3788527 nonzeros
Model fingerprint: 0x5e42d0bc
Model has 20 quadratic constraints
Variable types: 20 continuous, 157917 integer (157122 binary)
Coefficient statistics:
  Matrix range     [5e-01, 2e+04]
  QMatrix range    [1e+00, 1e+00]
  QLMatrix range   [1e+00, 1e+00]
  Objective range  [1e+00, 1e+00]
  Bounds range     [1e+00, 1e+00]
  RHS range        [1e+00, 1e+100]
Warning: Model contains large rhs
         Consider reformulating model or setting NumericFocus parameter
         to avoid numerical issues.

MIP start from previous solve produced solution with objective 21692 (0.52s)
Loaded MIP start from previous solve with objective 21692

Presolve removed 239526 rows and 48765 columns (presolve time = 5s)...
Presolve removed 240307 rows and 48767 columns (presolve time = 10s)...
Presolve removed 240340 rows and 48769 columns (presolve time = 15s)...
Presolve removed 245874 rows and 48769 columns (presolve time = 20s)...
Presolve removed 245978 rows and 48771 columns (presolve time = 25s)...
Presolve removed 246057 rows and 48771 columns (presolve time = 30s)...
Presolve removed 246206 rows and 48771 columns (presolve time = 35s)...
Presolve removed 246206 rows and 48771 columns (presolve time = 40s)...
Presolve removed 246206 rows and 48771 columns (presolve time = 45s)...
Presolve removed 246218 rows and 48783 columns
Presolve time: 46.14s
Presolved: 517902 rows, 109154 columns, 2604562 nonzeros
Presolved model has 20 quadratic constraint(s)
Variable types: 20 continuous, 109134 integer (108774 binary)

Deterministic concurrent LP optimizer: primal simplex, dual simplex, and barrier
Showing barrier log only...

Root relaxation presolve removed 447294 rows and 99206 columns
Root relaxation presolved: 109134 rows, 627011 columns, 2713665 nonzeros

Root barrier log...

Ordering time: 0.45s

Barrier performed 0 iterations in 50.66 seconds (140.17 work units)
Barrier solve interrupted - model solved by another algorithm

Concurrent spin time: 0.32s (can be avoided by choosing Method=3)

Solved with primal simplex

Root relaxation: objective 2.527000e+03, 209 iterations, 3.08 seconds (3.40 work units)
Total elapsed time = 55.11s (DegenMoves)
Total elapsed time = 64.72s (DegenMoves)
Total elapsed time = 65.82s (DegenMoves)

    Nodes    |    Current Node    |     Objective Bounds      |     Work
 Expl Unexpl |  Obj  Depth IntInf | Incumbent    BestBd   Gap | It/Node Time

     0     0 2527.00000    0  112 21692.0000 2527.00000  88.4%     -   67s
H    0     0                    21691.000000 2527.00000  88.4%     -   69s
     0     0 2527.00000    0  139 21691.0000 2527.00000  88.4%     -  129s
H    0     0                    2768.0000000 2527.00000  8.71%     -  131s

Resetting heuristic parameters to focus on improving solution
(using Heuristics=0.5 and RINS=10)...

     0     0 2527.00000    0  105 2768.00000 2527.00000  8.71%     -  155s
H    0     0                    2767.0000000 2527.00000  8.67%     -  157s
     0     0 2527.00000    0  116 2767.00000 2527.00000  8.67%     -  158s
     0     0 2527.00000    0   82 2767.00000 2527.00000  8.67%     -  198s

Cutting planes:
  Learned: 59
  Gomory: 3
  Lift-and-project: 9
  MIR: 1
  Flow cover: 640
  GUB cover: 1
  Zero half: 1
  Relax-and-lift: 8

Explored 1 nodes (13066 simplex iterations) in 360.21 seconds (483.70 work units)
Thread count was 16 (of 16 available processors)

Solution count 4: 2767 2768 21691 21692 

Time limit reached
Best objective 2.767000000000e+03, best bound 2.527000000000e+03, gap 8.6737%

User-callback calls 76786, time in user-callback 0.36 sec
